

******************************************************************************
This program contains Ipopt, a library for large-scale nonlinear optimization.
 Ipopt is released as open source code under the Eclipse Public License (EPL).
         For more information visit https://github.com/coin-or/Ipopt
******************************************************************************

This is Ipopt version 3.14.11, running with linear solver MUMPS 5.5.1.

Number of nonzeros in equality constraint Jacobian...:        0
Number of nonzeros in inequality constraint Jacobian.:        9
Number of nonzeros in Lagrangian Hessian.............:        3

Total number of variables............................:        3
                     variables with only lower bounds:        0
                variables with lower and upper bounds:        0
                     variables with only upper bounds:        0
Total number of equality constraints.................:        0
Total number of inequality constraints...............:        3
        inequality constraints with only lower bounds:        0
   inequality constraints with lower and upper bounds:        0
        inequality constraints with only upper bounds:        3

iter    objective    inf_pr   inf_du lg(mu)  ||d||  lg(rg) alpha_du alpha_pr  ls
   0  0.0000000e+00 5.41e+00 8.43e-01  -1.0 0.00e+00    -  0.00e+00 0.00e+00   0
   1  1.3265702e+00 7.97e-01 1.06e+00  -1.0 1.33e+00    -  1.00e+00 1.00e+00h  1
   2  2.1675959e+00 0.00e+00 9.77e-02  -1.0 8.41e-01    -  7.54e-01 1.00e+00h  1
   3  1.9583462e+00 2.44e-03 1.70e-02  -2.5 2.57e-01    -  1.00e+00 9.62e-01h  1
   4  1.9525674e+00 0.00e+00 1.70e-05  -3.8 2.84e-02    -  1.00e+00 1.00e+00h  1
   5  1.9522278e+00 0.00e+00 3.75e-07  -5.7 1.11e-03    -  1.00e+00 1.00e+00h  1
   6  1.9522245e+00 0.00e+00 4.72e-11  -8.6 1.29e-05    -  1.00e+00 1.00e+00h  1

Number of Iterations....: 6

                                   (scaled)                 (unscaled)
Objective...............:   1.9522244888305689e+00    1.9522244888305689e+00
Dual infeasibility......:   4.7236538147987925e-11    4.7236538147987925e-11
Constraint violation....:   0.0000000000000000e+00    0.0000000000000000e+00
Variable bound violation:   0.0000000000000000e+00    0.0000000000000000e+00
Complementarity.........:   2.5887051068002402e-09    2.5887051068002402e-09
Overall NLP error.......:   2.5887051068002402e-09    2.5887051068002402e-09


Number of objective function evaluations             = 7
Number of objective gradient evaluations             = 7
Number of equality constraint evaluations            = 0
Number of inequality constraint evaluations          = 7
Number of equality constraint Jacobian evaluations   = 0
Number of inequality constraint Jacobian evaluations = 7
Number of Lagrangian Hessian evaluations             = 6
Total seconds in IPOPT                               = 0.005

EXIT: Optimal Solution Found.
 
Ipopt 3.14.11: Optimal Solution Found
